p cnf 1000 2000
-3 -4 -5 0
3 4 5 0
-6 -8 -10 0
6 8 10 0
-5 -12 -13 0
5 12 13 0
-9 -12 -15 0
9 12 15 0
-8 -15 -17 0
8 15 17 0
-12 -16 -20 0
12 16 20 0
-15 -20 -25 0
15 20 25 0
-7 -24 -25 0
7 24 25 0
-10 -24 -26 0
10 24 26 0
-20 -21 -29 0
20 21 29 0
-18 -24 -30 0
18 24 30 0
-16 -30 -34 0
16 30 34 0
-21 -28 -35 0
21 28 35 0
-12 -35 -37 0
12 35 37 0
-15 -36 -39 0
15 36 39 0
-24 -32 -40 0
24 32 40 0
-9 -40 -41 0
9 40 41 0
-27 -36 -45 0
27 36 45 0
-30 -40 -50 0
30 40 50 0
-14 -48 -50 0
14 48 50 0
-24 -45 -51 0
24 45 51 0
-20 -48 -52 0
20 48 52 0
-28 -45 -53 0
28 45 53 0
-33 -44 -55 0
33 44 55 0
-40 -42 -58 0
40 42 58 0
-36 -48 -60 0
36 48 60 0
-11 -60 -61 0
11 60 61 0
-39 -52 -65 0
39 52 65 0
-33 -56 -65 0
33 56 65 0
-25 -60 -65 0
25 60 65 0
-16 -63 -65 0
16 63 65 0
-32 -60 -68 0
32 60 68 0
-42 -56 -70 0
42 56 70 0
-48 -55 -73 0
48 55 73 0
-24 -70 -74 0
24 70 74 0
-45 -60 -75 0
45 60 75 0
-21 -72 -75 0
21 72 75 0
-30 -72 -78 0
30 72 78 0
-48 -64 -80 0
48 64 80 0
-18 -80 -82 0
18 80 82 0
-51 -68 -85 0
51 68 85 0
-40 -75 -85 0
40 75 85 0
-36 -77 -85 0
36 77 85 0
-13 -84 -85 0
13 84 85 0
-60 -63 -87 0
60 63 87 0
-39 -80 -89 0
39 80 89 0
-54 -72 -90 0
54 72 90 0
-35 -84 -91 0
35 84 91 0
-57 -76 -95 0
57 76 95 0
-65 -72 -97 0
65 72 97 0
-60 -80 -100 0
60 80 100 0
-28 -96 -100 0
28 96 100 0
-20 -99 -101 0
20 99 101 0
-48 -90 -102 0
48 90 102 0
-40 -96 -104 0
40 96 104 0
-63 -84 -105 0
63 84 105 0
-56 -90 -106 0
56 90 106 0
-60 -91 -109 0
60 91 109 0
-66 -88 -110 0
66 88 110 0
-36 -105 -111 0
36 105 111 0
-15 -112 -113 0
15 112 113 0
-69 -92 -115 0
69 92 115 0
-80 -84 -116 0
80 84 116 0
-45 -108 -117 0
45 108 117 0
-56 -105 -119 0
56 105 119 0
-72 -96 -120 0
72 96 120 0
-22 -120 -122 0
22 120 122 0
-27 -120 -123 0
27 120 123 0
-75 -100 -125 0
75 100 125 0
-44 -117 -125 0
44 117 125 0
-35 -120 -125 0
35 120 125 0
-78 -104 -130 0
78 104 130 0
-66 -112 -130 0
66 112 130 0
-50 -120 -130 0
50 120 130 0
-32 -126 -130 0
32 126 130 0
-81 -108 -135 0
81 108 135 0
-64 -120 -136 0
64 120 136 0
-88 -105 -137 0
88 105 137 0
-84 -112 -140 0
84 112 140 0
-55 -132 -143 0
55 132 143 0
-100 -105 -145 0
100 105 145 0
-87 -116 -145 0
87 116 145 0
-24 -143 -145 0
24 143 145 0
-17 -144 -145 0
17 144 145 0
-96 -110 -146 0
96 110 146 0
-48 -140 -148 0
48 140 148 0
-51 -140 -149 0
51 140 149 0
-90 -120 -150 0
90 120 150 0
-42 -144 -150 0
42 144 150 0
-72 -135 -153 0
72 135 153 0
-93 -124 -155 0
93 124 155 0
-60 -144 -156 0
60 144 156 0
-85 -132 -157 0
85 132 157 0
-84 -135 -159 0
84 135 159 0
-96 -128 -160 0
96 128 160 0
-36 -160 -164 0
36 160 164 0
-99 -132 -165 0
99 132 165 0
-119 -120 -169 0
119 120 169 0
-65 -156 -169 0
65 156 169 0
-102 -136 -170 0
102 136 170 0
-80 -150 -170 0
80 150 170 0
-72 -154 -170 0
72 154 170 0
-26 -168 -170 0
26 168 170 0
-52 -165 -173 0
52 165 173 0
-120 -126 -174 0
120 126 174 0
-105 -140 -175 0
105 140 175 0
-49 -168 -175 0
49 168 175 0
-78 -160 -178 0
78 160 178 0
-108 -144 -180 0
108 144 180 0
-19 -180 -181 0
19 180 181 0
-70 -168 -182 0
70 168 182 0
-33 -180 -183 0
33 180 183 0
-111 -148 -185 0
111 148 185 0
-104 -153 -185 0
104 153 185 0
-60 -175 -185 0
60 175 185 0
-57 -176 -185 0
57 176 185 0
-88 -165 -187 0
88 165 187 0
-114 -152 -190 0
114 152 190 0
-95 -168 -193 0
95 168 193 0
-130 -144 -194 0
130 144 194 0
-117 -156 -195 0
117 156 195 0
-99 -168 -195 0
99 168 195 0
-75 -180 -195 0
75 180 195 0
-48 -189 -195 0
48 189 195 0
-28 -195 -197 0
28 195 197 0
-120 -160 -200 0
120 160 200 0
-56 -192 -200 0
56 192 200 0
-40 -198 -202 0
40 198 202 0
-140 -147 -203 0
140 147 203 0
-96 -180 -204 0
96 180 204 0
-133 -156 -205 0
133 156 205 0
-123 -164 -205 0
123 164 205 0
-84 -187 -205 0
84 187 205 0
-45 -200 -205 0
45 200 205 0
-80 -192 -208 0
80 192 208 0
-126 -168 -210 0
126 168 210 0
-112 -180 -212 0
112 180 212 0
-129 -172 -215 0
129 172 215 0
-120 -182 -218 0
120 182 218 0
-144 -165 -219 0
144 165 219 0
-132 -176 -220 0
132 176 220 0
-140 -171 -221 0
140 171 221 0
-104 -195 -221 0
104 195 221 0
-85 -204 -221 0
85 204 221 0
-21 -220 -221 0
21 220 221 0
-72 -210 -222 0
72 210 222 0
-135 -180 -225 0
135 180 225 0
-63 -216 -225 0
63 216 225 0
-30 -224 -226 0
30 224 226 0
-60 -221 -229 0
60 221 229 0
-138 -184 -230 0
138 184 230 0
-160 -168 -232 0
160 168 232 0
-105 -208 -233 0
105 208 233 0
-90 -216 -234 0
90 216 234 0
-141 -188 -235 0
141 188 235 0
-112 -210 -238 0
112 210 238 0
-144 -192 -240 0
144 192 240 0
-120 -209 -241 0
120 209 241 0
-44 -240 -244 0
44 240 244 0
-147 -196 -245 0
147 196 245 0
-54 -240 -246 0
54 240 246 0
-95 -228 -247 0
95 228 247 0
-150 -200 -250 0
150 200 250 0
-88 -234 -250 0
88 234 250 0
-70 -240 -250 0
70 240 250 0
-153 -204 -255 0
153 204 255 0
-120 -225 -255 0
120 225 255 0
-108 -231 -255 0
108 231 255 0
-39 -252 -255 0
39 252 255 0
-32 -255 -257 0
32 255 257 0
-84 -245 -259 0
84 245 259 0
-156 -208 -260 0
156 208 260 0
-132 -224 -260 0
132 224 260 0
-100 -240 -260 0
100 240 260 0
-64 -252 -260 0
64 252 260 0
-180 -189 -261 0
180 189 261 0
-159 -212 -265 0
159 212 265 0
-140 -225 -265 0
140 225 265 0
-96 -247 -265 0
96 247 265 0
-23 -264 -265 0
23 264 265 0
-117 -240 -267 0
117 240 267 0
-69 -260 -269 0
69 260 269 0
-162 -216 -270 0
162 216 270 0
-128 -240 -272 0
128 240 272 0
-105 -252 -273 0
105 252 273 0
-176 -210 -274 0
176 210 274 0
-165 -220 -275 0
165 220 275 0
-77 -264 -275 0
77 264 275 0
-115 -252 -277 0
115 252 277 0
-168 -224 -280 0
168 224 280 0
-160 -231 -281 0
160 231 281 0
-171 -228 -285 0
171 228 285 0
-110 -264 -286 0
110 264 286 0
-63 -280 -287 0
63 280 287 0
-161 -240 -289 0
161 240 289 0
-136 -255 -289 0
136 255 289 0
-200 -210 -290 0
200 210 290 0
-174 -232 -290 0
174 232 290 0
-48 -286 -290 0
48 286 290 0
-34 -288 -290 0
34 288 290 0
-195 -216 -291 0
195 216 291 0
-192 -220 -292 0
192 220 292 0
-68 -285 -293 0
68 285 293 0
-177 -236 -295 0
177 236 295 0
-96 -280 -296 0
96 280 296 0
-102 -280 -298 0
102 280 298 0
-115 -276 -299 0
115 276 299 0
-180 -240 -300 0
180 240 300 0
-84 -288 -300 0
84 288 300 0
-60 -297 -303 0
60 297 303 0
-207 -224 -305 0
207 224 305 0
-183 -244 -305 0
183 244 305 0
-136 -273 -305 0
136 273 305 0
-55 -300 -305 0
55 300 305 0
-144 -270 -306 0
144 270 306 0
-186 -248 -310 0
186 248 310 0
-120 -288 -312 0
120 288 312 0
-25 -312 -313 0
25 312 313 0
-170 -264 -314 0
170 264 314 0
-189 -252 -315 0
189 252 315 0
-75 -308 -317 0
75 308 317 0
-168 -270 -318 0
168 270 318 0
-220 -231 -319 0
220 231 319 0
-192 -256 -320 0
192 256 320 0
-152 -285 -323 0
152 285 323 0
-204 -253 -325 0
204 253 325 0
-195 -260 -325 0
195 260 325 0
-165 -280 -325 0
165 280 325 0
-125 -300 -325 0
125 300 325 0
-91 -312 -325 0
91 312 325 0
-80 -315 -325 0
80 315 325 0
-36 -323 -325 0
36 323 325 0
-180 -273 -327 0
180 273 327 0
-72 -320 -328 0
72 320 328 0
-198 -264 -330 0
198 264 330 0
-108 -315 -333 0
108 315 333 0
-201 -268 -335 0
201 268 335 0
-175 -288 -337 0
175 288 337 0
-238 -240 -338 0
238 240 338 0
-130 -312 -338 0
130 312 338 0
-45 -336 -339 0
45 336 339 0
-204 -272 -340 0
204 272 340 0
-160 -300 -340 0
160 300 340 0
-144 -308 -340 0
144 308 340 0
-52 -336 -340 0
52 336 340 0
-207 -276 -345 0
207 276 345 0
-104 -330 -346 0
104 330 346 0
-240 -252 -348 0
240 252 348 0
-180 -299 -349 0
180 299 349 0
-210 -280 -350 0
210 280 350 0
-98 -336 -350 0
98 336 350 0
-135 -324 -351 0
135 324 351 0
-225 -272 -353 0
225 272 353 0
-213 -284 -355 0
213 284 355 0
-156 -320 -356 0
156 320 356 0
-168 -315 -357 0
168 315 357 0
-216 -288 -360 0
216 288 360 0
-38 -360 -362 0
38 360 362 0
-140 -336 -364 0
140 336 364 0
-240 -275 -365 0
240 275 365 0
-219 -292 -365 0
219 292 365 0
-76 -357 -365 0
76 357 365 0
-27 -364 -365 0
27 364 365 0
-66 -360 -366 0
66 360 366 0
-81 -360 -369 0
81 360 369 0
-222 -296 -370 0
222 296 370 0
-208 -306 -370 0
208 306 370 0
-120 -350 -370 0
120 350 370 0
-114 -352 -370 0
114 352 370 0
-196 -315 -371 0
196 315 371 0
-252 -275 -373 0
252 275 373 0
-176 -330 -374 0
176 330 374 0
-225 -300 -375 0
225 300 375 0
-132 -351 -375 0
132 351 375 0
-105 -360 -375 0
105 360 375 0
-260 -273 -377 0
260 273 377 0
-152 -345 -377 0
152 345 377 0
-145 -348 -377 0
145 348 377 0
-135 -352 -377 0
135 352 377 0
-228 -304 -380 0
228 304 380 0
-231 -308 -385 0
231 308 385 0
-190 -336 -386 0
190 336 386 0
-260 -288 -388 0
260 288 388 0
-189 -340 -389 0
189 340 389 0
-234 -312 -390 0
234 312 390 0
-198 -336 -390 0
198 336 390 0
-150 -360 -390 0
150 360 390 0
-96 -378 -390 0
96 378 390 0
-184 -345 -391 0
184 345 391 0
-56 -390 -394 0
56 390 394 0
-237 -316 -395 0
237 316 395 0
-228 -325 -397 0
228 325 397 0
-240 -320 -400 0
240 320 400 0
-112 -384 -400 0
112 384 400 0
-40 -399 -401 0
40 399 401 0
-155 -372 -403 0
155 372 403 0
-80 -396 -404 0
80 396 404 0
-243 -324 -405 0
243 324 405 0
-280 -294 -406 0
280 294 406 0
-132 -385 -407 0
132 385 407 0
-192 -360 -408 0
192 360 408 0
-120 -391 -409 0
120 391 409 0
-266 -312 -410 0
266 312 410 0
-246 -328 -410 0
246 328 410 0
-168 -374 -410 0
168 374 410 0
-90 -400 -410 0
90 400 410 0
-264 -315 -411 0
264 315 411 0
-249 -332 -415 0
249 332 415 0
-160 -384 -416 0
160 384 416 0
-252 -336 -420 0
252 336 420 0
-29 -420 -421 0
29 420 421 0
-224 -360 -424 0
224 360 424 0
-297 -304 -425 0
297 304 425 0
-255 -340 -425 0
255 340 425 0
-200 -375 -425 0
200 375 425 0
-180 -385 -425 0
180 385 425 0
-119 -408 -425 0
119 408 425 0
-87 -416 -425 0
87 416 425 0
-65 -420 -425 0
65 420 425 0
-77 -420 -427 0
77 420 427 0
-165 -396 -429 0
165 396 429 0
-258 -344 -430 0
258 344 430 0
-145 -408 -433 0
145 408 433 0
-300 -315 -435 0
300 315 435 0
-261 -348 -435 0
261 348 435 0
-72 -429 -435 0
72 429 435 0
-51 -432 -435 0
51 432 435 0
-240 -364 -436 0
240 364 436 0
-288 -330 -438 0
288 330 438 0
-264 -352 -440 0
264 352 440 0
-280 -342 -442 0
280 342 442 0
-208 -390 -442 0
208 390 442 0
-170 -408 -442 0
170 408 442 0
-42 -440 -442 0
42 440 442 0
-144 -420 -444 0
144 420 444 0
-267 -356 -445 0
267 356 445 0
-203 -396 -445 0
203 396 445 0
-195 -400 -445 0
195 400 445 0
-84 -437 -445 0
84 437 445 0
-153 -420 -447 0
153 420 447 0
-280 -351 -449 0
280 351 449 0
-270 -360 -450 0
270 360 450 0
-126 -432 -450 0
126 432 450 0
-99 -440 -451 0
99 440 451 0
-60 -448 -452 0
60 448 452 0
-273 -364 -455 0
273 364 455 0
-231 -392 -455 0
231 392 455 0
-175 -420 -455 0
175 420 455 0
-112 -441 -455 0
112 441 455 0
-168 -425 -457 0
168 425 457 0
-120 -442 -458 0
120 442 458 0
-216 -405 -459 0
216 405 459 0
-276 -368 -460 0
276 368 460 0
-261 -380 -461 0
261 380 461 0
-320 -336 -464 0
320 336 464 0
-279 -372 -465 0
279 372 465 0
-210 -416 -466 0
210 416 466 0
-180 -432 -468 0
180 432 468 0
-282 -376 -470 0
282 376 470 0
-255 -396 -471 0
255 396 471 0
-285 -380 -475 0
285 380 475 0
-133 -456 -475 0
133 456 475 0
-224 -420 -476 0
224 420 476 0
-252 -405 -477 0
252 405 477 0
-288 -384 -480 0
288 384 480 0
-319 -360 -481 0
319 360 481 0
-185 -444 -481 0
185 444 481 0
-156 -455 -481 0
156 455 481 0
-31 -480 -481 0
31 480 481 0
-240 -418 -482 0
240 418 482 0
-325 -360 -485 0
325 360 485 0
-291 -388 -485 0
291 388 485 0
-93 -476 -485 0
93 476 485 0
-44 -483 -485 0
44 483 485 0
-88 -480 -488 0
88 480 488 0
-294 -392 -490 0
294 392 490 0
-108 -480 -492 0
108 480 492 0
-340 -357 -493 0
340 357 493 0
-232 -435 -493 0
232 435 493 0
-155 -468 -493 0
155 468 493 0
-132 -475 -493 0
132 475 493 0
-190 -456 -494 0
190 456 494 0
-297 -396 -495 0
297 396 495 0
-300 -400 -500 0
300 400 500 0
-176 -468 -500 0
176 468 500 0
-140 -480 -500 0
140 480 500 0
-336 -377 -505 0
336 377 505 0
-303 -404 -505 0
303 404 505 0
-217 -456 -505 0
217 456 505 0
-100 -495 -505 0
100 495 505 0
-357 -360 -507 0
357 360 507 0
-195 -468 -507 0
195 468 507 0
-220 -459 -509 0
220 459 509 0
-306 -408 -510 0
306 408 510 0
-240 -450 -510 0
240 450 510 0
-216 -462 -510 0
216 462 510 0
-78 -504 -510 0
78 504 510 0
-336 -385 -511 0
336 385 511 0
-64 -510 -514 0
64 510 514 0
-309 -412 -515 0
309 412 515 0
-168 -490 -518 0
168 490 518 0
-156 -495 -519 0
156 495 519 0
-312 -416 -520 0
312 416 520 0
-264 -448 -520 0
264 448 520 0
-200 -480 -520 0
200 480 520 0
-128 -504 -520 0
128 504 520 0
-279 -440 -521 0
279 440 521 0
-360 -378 -522 0
360 378 522 0
-315 -420 -525 0
315 420 525 0
-147 -504 -525 0
147 504 525 0
-248 -465 -527 0
248 465 527 0
-318 -424 -530 0
318 424 530 0
-280 -450 -530 0
280 450 530 0
-192 -494 -530 0
192 494 530 0
-46 -528 -530 0
46 528 530 0
-308 -435 -533 0
308 435 533 0
-205 -492 -533 0
205 492 533 0
-117 -520 -533 0
117 520 533 0
-92 -525 -533 0
92 525 533 0
-234 -480 -534 0
234 480 534 0
-321 -428 -535 0
321 428 535 0
-138 -520 -538 0
138 520 538 0
-324 -432 -540 0
324 432 540 0
-341 -420 -541 0
341 420 541 0
-57 -540 -543 0
57 540 543 0
-256 -480 -544 0
256 480 544 0
-327 -436 -545 0
327 436 545 0
-300 -455 -545 0
300 455 545 0
-184 -513 -545 0
184 513 545 0
-33 -544 -545 0
33 544 545 0
-210 -504 -546 0
210 504 546 0
-352 -420 -548 0
352 420 548 0
-99 -540 -549 0
99 540 549 0
-330 -440 -550 0
330 440 550 0
-154 -528 -550 0
154 528 550 0
-380 -399 -551 0
380 399 551 0
-230 -504 -554 0
230 504 554 0
-333 -444 -555 0
333 444 555 0
-312 -459 -555 0
312 459 555 0
-180 -525 -555 0
180 525 555 0
-171 -528 -555 0
171 528 555 0
-165 -532 -557 0
165 532 557 0
-215 -516 -559 0
215 516 559 0
-336 -448 -560 0
336 448 560 0
-264 -495 -561 0
264 495 561 0
-320 -462 -562 0
320 462 562 0
-396 -403 -565 0
396 403 565 0
-339 -452 -565 0
339 452 565 0
-276 -493 -565 0
276 493 565 0
-75 -560 -565 0
75 560 565 0
-231 -520 -569 0
231 520 569 0
-342 -456 -570 0
342 456 570 0
-220 -528 -572 0
220 528 572 0
-126 -560 -574 0
126 560 574 0
-345 -460 -575 0
345 460 575 0
-161 -552 -575 0
161 552 575 0
-48 -575 -577 0
48 575 577 0
-322 -480 -578 0
322 480 578 0
-272 -510 -578 0
272 510 578 0
-285 -504 -579 0
285 504 579 0
-400 -420 -580 0
400 420 580 0
-348 -464 -580 0
348 464 580 0
-96 -572 -580 0
96 572 580 0
-68 -576 -580 0
68 576 580 0
-390 -432 -582 0
390 432 582 0
-308 -495 -583 0
308 495 583 0
-384 -440 -584 0
384 440 584 0
-351 -468 -585 0
351 468 585 0
-297 -504 -585 0
297 504 585 0
-225 -540 -585 0
225 540 585 0
-144 -567 -585 0
144 567 585 0
-136 -570 -586 0
136 570 586 0
-354 -472 -590 0
354 472 590 0
-84 -585 -591 0
84 585 591 0
-192 -560 -592 0
192 560 592 0
-368 -465 -593 0
368 465 593 0
-357 -476 -595 0
357 476 595 0
-280 -525 -595 0
280 525 595 0
-252 -539 -595 0
252 539 595 0
-91 -588 -595 0
91 588 595 0
-204 -560 -596 0
204 560 596 0
-230 -552 -598 0
230 552 598 0
-360 -480 -600 0
360 480 600 0
-168 -576 -600 0
168 576 600 0
-240 -551 -601 0
240 551 601 0
-363 -484 -605 0
363 484 605 0
-120 -594 -606 0
120 594 606 0
-420 -441 -609 0
420 441 609 0
-414 -448 -610 0
414 448 610 0
-366 -488 -610 0
366 488 610 0
-272 -546 -610 0
272 546 610 0
-110 -600 -610 0
110 600 610 0
-235 -564 -611 0
235 564 611 0
-288 -540 -612 0
288 540 612 0
-35 -612 -613 0
35 612 613 0
-399 -468 -615 0
399 468 615 0
-369 -492 -615 0
369 492 615 0
-252 -561 -615 0
252 561 615 0
-135 -600 -615 0
135 600 615 0
-105 -608 -617 0
105 608 617 0
-372 -496 -620 0
372 496 620 0
-273 -560 -623 0
273 560 623 0
-240 -576 -624 0
240 576 624 0
-375 -500 -625 0
375 500 625 0
-336 -527 -625 0
336 527 625 0
-220 -585 -625 0
220 585 625 0
-175 -600 -625 0
175 600 625 0
-50 -624 -626 0
50 624 626 0
-340 -528 -628 0
340 528 628 0
-429 -460 -629 0
429 460 629 0
-296 -555 -629 0
296 555 629 0
-204 -595 -629 0
204 595 629 0
-100 -621 -629 0
100 621 629 0
-378 -504 -630 0
378 504 630 0
-150 -616 -634 0
150 616 634 0
-381 -508 -635 0
381 508 635 0
-336 -540 -636 0
336 540 636 0
-245 -588 -637 0
245 588 637 0
-440 -462 -638 0
440 462 638 0
-384 -512 -640 0
384 512 640 0
-200 -609 -641 0
200 609 641 0
-387 -516 -645 0
387 516 645 0
-304 -570 -646 0
304 570 646 0
-408 -506 -650 0
408 506 650 0
-390 -520 -650 0
390 520 650 0
-330 -560 -650 0
330 560 650 0
-250 -600 -650 0
250 600 650 0
-182 -624 -650 0
182 624 650 0
-160 -630 -650 0
160 630 650 0
-72 -646 -650 0
72 646 650 0
-315 -572 -653 0
315 572 653 0
-360 -546 -654 0
360 546 654 0
-393 -524 -655 0
393 524 655 0
-144 -640 -656 0
144 640 656 0
-432 -495 -657 0
432 495 657 0
-396 -528 -660 0
396 528 660 0
-300 -589 -661 0
300 589 661 0
-420 -513 -663 0
420 513 663 0
-312 -585 -663 0
312 585 663 0
-255 -612 -663 0
255 612 663 0
-63 -660 -663 0
63 660 663 0
-399 -532 -665 0
399 532 665 0
-216 -630 -666 0
216 630 666 0
-460 -483 -667 0
460 483 667 0
-402 -536 -670 0
402 536 670 0
-121 -660 -671 0
121 660 671 0
-385 -552 -673 0
385 552 673 0
-350 -576 -674 0
350 576 674 0
-405 -540 -675 0
405 540 675 0
-189 -648 -675 0
189 648 675 0
-476 -480 -676 0
476 480 676 0
-260 -624 -676 0
260 624 676 0
-52 -675 -677 0
52 675 677 0
-90 -672 -678 0
90 672 678 0
-455 -504 -679 0
455 504 679 0
-408 -544 -680 0
408 544 680 0
-320 -600 -680 0
320 600 680 0
-288 -616 -680 0
288 616 680 0
-104 -672 -680 0
104 672 680 0
-440 -525 -685 0
440 525 685 0
-411 -548 -685 0
411 548 685 0
-156 -667 -685 0
156 667 685 0
-37 -684 -685 0
37 684 685 0
-180 -663 -687 0
180 663 687 0
-400 -561 -689 0
400 561 689 0
-364 -585 -689 0
364 585 689 0
-265 -636 -689 0
265 636 689 0
-111 -680 -689 0
111 680 689 0
-414 -552 -690 0
414 552 690 0
-208 -660 -692 0
208 660 692 0
-417 -556 -695 0
417 556 695 0
-480 -504 -696 0
480 504 696 0
-455 -528 -697 0
455 528 697 0
-328 -615 -697 0
328 615 697 0
-185 -672 -697 0
185 672 697 0
-153 -680 -697 0
153 680 697 0
-360 -598 -698 0
360 598 698 0
-315 -624 -699 0
315 624 699 0
-420 -560 -700 0
420 560 700 0
-196 -672 -700 0
196 672 700 0
-260 -651 -701 0
260 651 701 0
-270 -648 -702 0
270 648 702 0
-228 -665 -703 0
228 665 703 0
-423 -564 -705 0
423 564 705 0
-450 -544 -706 0
450 544 706 0
-140 -693 -707 0
140 693 707 0
-259 -660 -709 0
259 660 709 0
-426 -568 -710 0
426 568 710 0
-312 -640 -712 0
312 640 712 0
-336 -630 -714 0
336 630 714 0
-429 -572 -715 0
429 572 715 0
-363 -616 -715 0
363 616 715 0
-275 -660 -715 0
275 660 715 0
-176 -693 -715 0
176 693 715 0
-432 -576 -720 0
432 576 720 0
-360 -627 -723 0
360 627 723 0
-76 -720 -724 0
76 720 724 0
-500 -525 -725 0
500 525 725 0
-435 -580 -725 0
435 580 725 0
-364 -627 -725 0
364 627 725 0
-333 -644 -725 0
333 644 725 0
-203 -696 -725 0
203 696 725 0
-120 -715 -725 0
120 715 725 0
-85 -720 -725 0
85 720 725 0
-280 -672 -728 0
280 672 728 0
-480 -550 -730 0
480 550 730 0
-438 -584 -730 0
438 584 730 0
-152 -714 -730 0
152 714 730 0
-54 -728 -730 0
54 728 730 0
-344 -645 -731 0
344 645 731 0
-132 -720 -732 0
132 720 732 0
-108 -725 -733 0
108 725 733 0
-441 -588 -735 0
441 588 735 0
-162 -720 -738 0
162 720 738 0
-444 -592 -740 0
444 592 740 0
-416 -612 -740 0
416 612 740 0
-240 -700 -740 0
240 700 740 0
-228 -704 -740 0
228 704 740 0
-285 -684 -741 0
285 684 741 0
-392 -630 -742 0
392 630 742 0
-447 -596 -745 0
447 596 745 0
-407 -624 -745 0
407 624 745 0
-255 -700 -745 0
255 700 745 0
-216 -713 -745 0
216 713 745 0
-504 -550 -746 0
504 550 746 0
-352 -660 -748 0
352 660 748 0
-450 -600 -750 0
450 600 750 0
-264 -702 -750 0
264 702 750 0
-210 -720 -750 0
210 720 750 0
-520 -546 -754 0
520 546 754 0
-304 -690 -754 0
304 690 754 0
-290 -696 -754 0
290 696 754 0
-270 -704 -754 0
270 704 754 0
-453 -604 -755 0
453 604 755 0
-468 -595 -757 0
468 595 757 0
-456 -608 -760 0
456 608 760 0
-39 -760 -761 0
39 760 761 0
-420 -637 -763 0
420 637 763 0
-459 -612 -765 0
459 612 765 0
-360 -675 -765 0
360 675 765 0
-324 -693 -765 0
324 693 765 0
-117 -756 -765 0
117 756 765 0
-295 -708 -767 0
295 708 767 0
-481 -600 -769 0
481 600 769 0
-462 -616 -770 0
462 616 770 0
-96 -765 -771 0
96 765 771 0
-380 -672 -772 0
380 672 772 0
-195 -748 -773 0
195 748 773 0
-465 -620 -775 0
465 620 775 0
-217 -744 -775 0
217 744 775 0
-520 -576 -776 0
520 576 776 0
-252 -735 -777 0
252 735 777 0
-378 -680 -778 0
378 680 778 0
-171 -760 -779 0
171 760 779 0
-468 -624 -780 0
468 624 780 0
-396 -672 -780 0
396 672 780 0
-300 -720 -780 0
300 720 780 0
-192 -756 -780 0
192 756 780 0
-368 -690 -782 0
368 690 782 0
-540 -567 -783 0
540 567 783 0
-471 -628 -785 0
471 628 785 0
-425 -660 -785 0
425 660 785 0
-273 -736 -785 0
273 736 785 0
-56 -783 -785 0
56 783 785 0
-112 -780 -788 0
112 780 788 0
-474 -632 -790 0
474 632 790 0
-105 -784 -791 0
105 784 791 0
-432 -665 -793 0
432 665 793 0
-305 -732 -793 0
305 732 793 0
-168 -775 -793 0
168 775 793 0
-143 -780 -793 0
143 780 793 0
-456 -650 -794 0
456 650 794 0
-477 -636 -795 0
477 636 795 0
-420 -675 -795 0
420 675 795 0
-288 -741 -795 0
288 741 795 0
-69 -792 -795 0
69 792 795 0
-555 -572 -797 0
555 572 797 0
-376 -705 -799 0
376 705 799 0
-480 -640 -800 0
480 640 800 0
-224 -768 -800 0
224 768 800 0
-351 -720 -801 0
351 720 801 0
-80 -798 -802 0
80 798 802 0
-528 -605 -803 0
528 605 803 0
-483 -644 -805 0
483 644 805 0
-310 -744 -806 0
310 744 806 0
-207 -780 -807 0
207 780 807 0
-160 -792 -808 0
160 792 808 0
-280 -759 -809 0
280 759 809 0
-486 -648 -810 0
486 648 810 0
-560 -588 -812 0
560 588 812 0
-264 -770 -814 0
264 770 814 0
-489 -652 -815 0
489 652 815 0
-384 -720 -816 0
384 720 816 0
-240 -782 -818 0
240 782 818 0
-315 -756 -819 0
315 756 819 0
-532 -624 -820 0
532 624 820 0
-492 -656 -820 0
492 656 820 0
-336 -748 -820 0
336 748 820 0
-180 -800 -820 0
180 800 820 0
-429 -700 -821 0
429 700 821 0
-528 -630 -822 0
528 630 822 0
-495 -660 -825 0
495 660 825 0
-231 -792 -825 0
231 792 825 0
-540 -629 -829 0
540 629 829 0
-498 -664 -830 0
498 664 830 0
-345 -756 -831 0
345 756 831 0
-320 -768 -832 0
320 768 832 0
-392 -735 -833 0
392 735 833 0
-501 -668 -835 0
501 668 835 0
-504 -672 -840 0
504 672 840 0
-580 -609 -841 0
580 609 841 0
-41 -840 -841 0
41 840 841 0
-58 -840 -842 0
58 840 842 0
-480 -693 -843 0
480 693 843 0
-595 -600 -845 0
595 600 845 0
-507 -676 -845 0
507 676 845 0
-429 -728 -845 0
429 728 845 0
-325 -780 -845 0
325 780 845 0
-208 -819 -845 0
208 819 845 0
-123 -836 -845 0
123 836 845 0
-116 -837 -845 0
116 837 845 0
-448 -720 -848 0
448 720 848 0
-594 -608 -850 0
594 608 850 0
-510 -680 -850 0
510 680 850 0
-400 -750 -850 0
400 750 850 0
-360 -770 -850 0
360 770 850 0
-238 -816 -850 0
238 816 850 0
-174 -832 -850 0
174 832 850 0
-130 -840 -850 0
130 840 850 0
-276 -805 -851 0
276 805 851 0
-205 -828 -853 0
205 828 853 0
-154 -840 -854 0
154 840 854 0
-513 -684 -855 0
513 684 855 0
-232 -825 -857 0
232 825 857 0
-330 -792 -858 0
330 792 858 0
-516 -688 -860 0
516 688 860 0
-189 -840 -861 0
189 840 861 0
-519 -692 -865 0
519 692 865 0
-504 -703 -865 0
504 703 865 0
-287 -816 -865 0
287 816 865 0
-260 -825 -865 0
260 825 865 0
-290 -816 -866 0
290 816 866 0
-483 -720 -867 0
483 720 867 0
-408 -765 -867 0
408 765 867 0
-600 -630 -870 0
600 630 870 0
-522 -696 -870 0
522 696 870 0
-144 -858 -870 0
144 858 870 0
-102 -864 -870 0
102 864 870 0
-335 -804 -871 0
335 804 871 0
-480 -728 -872 0
480 728 872 0
-585 -648 -873 0
585 648 873 0
-525 -700 -875 0
525 700 875 0
-308 -819 -875 0
308 819 875 0
-245 -840 -875 0
245 840 875 0
-576 -660 -876 0
576 660 876 0
-348 -805 -877 0
348 805 877 0
-204 -855 -879 0
204 855 879 0
-528 -704 -880 0
528 704 880 0
-369 -800 -881 0
369 800 881 0
-560 -684 -884 0
560 684 884 0
-416 -780 -884 0
416 780 884 0
-340 -816 -884 0
340 816 884 0
-84 -880 -884 0
84 880 884 0
-531 -708 -885 0
531 708 885 0
-288 -840 -888 0
288 840 888 0
-534 -712 -890 0
534 712 890 0
-406 -792 -890 0
406 792 890 0
-390 -800 -890 0
390 800 890 0
-168 -874 -890 0
168 874 890 0
-306 -840 -894 0
306 840 894 0
-537 -716 -895 0
537 716 895 0
-345 -828 -897 0
345 828 897 0
-560 -702 -898 0
560 702 898 0
-620 -651 -899 0
620 651 899 0
-540 -720 -900 0
540 720 900 0
-252 -864 -900 0
252 864 900 0
-476 -765 -901 0
476 765 901 0
-451 -780 -901 0
451 780 901 0
-424 -795 -901 0
424 795 901 0
-60 -899 -901 0
60 899 901 0
-198 -880 -902 0
198 880 902 0
-120 -896 -904 0
120 896 904 0
-616 -663 -905 0
616 663 905 0
-543 -724 -905 0
543 724 905 0
-464 -777 -905 0
464 777 905 0
-95 -900 -905 0
95 900 905 0
-180 -891 -909 0
180 891 909 0
-546 -728 -910 0
546 728 910 0
-462 -784 -910 0
462 784 910 0
-350 -840 -910 0
350 840 910 0
-224 -882 -910 0
224 882 910 0
-336 -850 -914 0
336 850 914 0
-621 -672 -915 0
621 672 915 0
-549 -732 -915 0
549 732 915 0
-408 -819 -915 0
408 819 915 0
-165 -900 -915 0
165 900 915 0
-240 -884 -916 0
240 884 916 0
-432 -810 -918 0
432 810 918 0
-552 -736 -920 0
552 736 920 0
-522 -760 -922 0
522 760 922 0
-355 -852 -923 0
355 852 923 0
-555 -740 -925 0
555 740 925 0
-533 -756 -925 0
533 756 925 0
-520 -765 -925 0
520 765 925 0
-300 -875 -925 0
300 875 925 0
-285 -880 -925 0
285 880 925 0
-259 -888 -925 0
259 888 925 0
-43 -924 -925 0
43 924 925 0
-640 -672 -928 0
640 672 928 0
-129 -920 -929 0
129 920 929 0
-558 -744 -930 0
558 744 930 0
-420 -832 -932 0
420 832 932 0
-561 -748 -935 0
561 748 935 0
-440 -825 -935 0
440 825 935 0
-396 -847 -935 0
396 847 935 0
-143 -924 -935 0
143 924 935 0
-360 -864 -936 0
360 864 936 0
-215 -912 -937 0
215 912 937 0
-75 -936 -939 0
75 936 939 0
-564 -752 -940 0
564 752 940 0
-580 -741 -941 0
580 741 941 0
-510 -792 -942 0
510 792 942 0
-207 -920 -943 0
207 920 943 0
-567 -756 -945 0
567 756 945 0
-624 -715 -949 0
624 715 949 0
-420 -851 -949 0
420 851 949 0
-365 -876 -949 0
365 876 949 0
-301 -900 -949 0
301 900 949 0
-570 -760 -950 0
570 760 950 0
-266 -912 -950 0
266 912 950 0
-225 -924 -951 0
225 924 951 0
-448 -840 -952 0
448 840 952 0
-615 -728 -953 0
615 728 953 0
-504 -810 -954 0
504 810 954 0
-573 -764 -955 0
573 764 955 0
-660 -693 -957 0
660 693 957 0
-616 -735 -959 0
616 735 959 0
-576 -768 -960 0
576 768 960 0
-638 -720 -962 0
638 720 962 0
-370 -888 -962 0
370 888 962 0
-312 -910 -962 0
312 910 962 0
-62 -960 -962 0
62 960 962 0
-480 -836 -964 0
480 836 964 0
-579 -772 -965 0
579 772 965 0
-475 -840 -965 0
475 840 965 0
-387 -884 -965 0
387 884 965 0
-124 -957 -965 0
124 957 965 0
-456 -855 -969 0
456 855 969 0
-650 -720 -970 0
650 720 970 0
-582 -776 -970 0
582 776 970 0
-186 -952 -970 0
186 952 970 0
-88 -966 -970 0
88 966 970 0
-612 -759 -975 0
612 759 975 0
-585 -780 -975 0
585 780 975 0
-495 -840 -975 0
495 840 975 0
-375 -900 -975 0
375 900 975 0
-273 -936 -975 0
273 936 975 0
-240 -945 -975 0
240 945 975 0
-108 -969 -975 0
108 969 975 0
-176 -960 -976 0
176 960 976 0
-248 -945 -977 0
248 945 977 0
-429 -880 -979 0
429 880 979 0
-588 -784 -980 0
588 784 980 0
-540 -819 -981 0
540 819 981 0
-216 -960 -984 0
216 960 984 0
-696 -697 -985 0
696 697 985 0
-591 -788 -985 0
591 788 985 0
-473 -864 -985 0
473 864 985 0
-140 -975 -985 0
140 975 985 0
-680 -714 -986 0
680 714 986 0
-464 -870 -986 0
464 870 986 0
-310 -936 -986 0
310 936 986 0
-264 -950 -986 0
264 950 986 0
-380 -912 -988 0
380 912 988 0
-594 -792 -990 0
594 792 990 0
-597 -796 -995 0
597 796 995 0
-372 -925 -997 0
372 925 997 0
-324 -945 -999 0
324 945 999 0
